
Gurobi 13.0.1 (win64) logging started Thu Apr 23 13:12:36 2026


Gurobi 13.0.1 (win64) logging started Thu Apr 23 13:12:42 2026


Gurobi 13.0.1 (win64) logging started Thu Apr 23 13:12:50 2026


Gurobi 13.0.1 (win64) logging started Thu Apr 23 13:12:57 2026

